\ENCODING=ISO-8859-1
\Problem name: IloCplex

Minimize
 obj1: x1 + x2 + x3 + x4 + x5 + x6 + x7 + x8
Subject To
 c1: 5 x1 + x6 + x7 + 3 x8 >= 48
 c2: 2 x2 + 2 x7 >= 35
 c3: 2 x3 + x8 >= 24
 c4: 2 x4 >= 10
 c5: x5 + x6 >= 8
Bounds
 0 <= x1 <= 2147483647
 0 <= x2 <= 2147483647
 0 <= x3 <= 2147483647
 0 <= x4 <= 2147483647
 0 <= x5 <= 2147483647
 0 <= x6 <= 2147483647
 0 <= x7 <= 2147483647
 0 <= x8 <= 2147483647
End
